Route #1: 48 34 42 33 11
Route #2: 9 50 3 2 10 51 15 13 37 55
Route #3: 24 58 38 27 1 54 35
Route #4: 53 19 25 23 57
Route #5: 22 5 16 46 32 26 6 14 49
Route #6: 39 45 8 20
Route #7: 41 28 17 12
Route #8: 59 40 47 44 52
Route #9: 43 18 21 36 31 30 4 7
Route #10: 56 29

Cost: 3608.9024850946244
